Maximize
 0
Subject To
 epc_0!1: +94.21234665152639 y_1!1_2!1 -99.40730371346571 y_1!2_2!1 -2.5380805747073936 y_1!3_2!1 -83.36130779419462 y_1!4_2!1 -97.89463912833472 y_1!5_2!1 +46.494929224537344 y_1!1_2!2 -61.893574418163276 y_1!2_2!2 -73.91675496099685 y_1!3_2!2 -53.51921002714204 y_1!4_2!2 -87.72561387004112 y_1!5_2!2 +48.613622019500156 y_1!1_2!3 -78.51675635466722 y_1!2_2!3 +36.741650202626886 y_1!3_2!3 -77.91332815838001 y_1!4_2!3 +1.6942935401734758 y_1!5_2!3 +99.9188908788378 y_1!1_2!4 -72.07658100556293 y_1!2_2!4 +10.619297002870766 y_1!3_2!4 -69.4639874124703 y_1!4_2!4 +95.0838552646646 y_1!5_2!4 +83.11089713380349 y_1!1_2!5 +43.02446086923629 y_1!2_2!5 +59.03773080015239 y_1!3_2!5 +19.866001700767242 y_1!4_2!5 -24.653507914104324 y_1!5_2!5 + lambda_0!1 - mu_0 = 0
 epc_0!2: -42.39341216322548 y_1!1_2!1 -49.10996879453666 y_1!2_2!1 +25.11244446127607 y_1!3_2!1 +26.977379549055854 y_1!4_2!1 +39.731711881060846 y_1!5_2!1 -39.2790832623306 y_1!1_2!2 -25.553395027275585 y_1!2_2!2 +43.225997958506156 y_1!3_2!2 +22.850667876504673 y_1!4_2!2 -36.21006177721624 y_1!5_2!2 -29.945238408251143 y_1!1_2!3 +74.48066989635146 y_1!2_2!3 +45.59907483328391 y_1!3_2!3 +83.84734660696412 y_1!4_2!3 +86.62736385913561 y_1!5_2!3 +36.676952866493195 y_1!1_2!4 +12.346407017643529 y_1!2_2!4 -67.11515069390225 y_1!3_2!4 +43.314131865882985 y_1!4_2!4 -65.89470425023629 y_1!5_2!4 -99.0563354287927 y_1!1_2!5 +53.08802596598855 y_1!2_2!5 -99.77615878103123 y_1!3_2!5 +92.2418160339545 y_1!4_2!5 -44.64102211612948 y_1!5_2!5 + lambda_0!2 - mu_0 = 0
 epc_0!3: +3.705362756167375 y_1!1_2!1 +5.568955532573099 y_1!2_2!1 +44.67210832808749 y_1!3_2!1 -9.368248358972252 y_1!4_2!1 +43.13692214135639 y_1!5_2!1 -19.544595665085424 y_1!1_2!2 +16.15274481317357 y_1!2_2!2 -39.78325347830287 y_1!3_2!2 +79.62535879341135 y_1!4_2!2 +65.9111229128574 y_1!5_2!2 +33.28672595339356 y_1!1_2!3 -5.447461159949341 y_1!2_2!3 -26.976224227217998 y_1!3_2!3 +81.72117466311391 y_1!4_2!3 -53.65627714428156 y_1!5_2!3 -93.83497613694533 y_1!1_2!4 +65.20115384398451 y_1!2_2!4 -96.74192486806896 y_1!3_2!4 -54.41723810388619 y_1!4_2!4 +71.08335969896044 y_1!5_2!4 +88.1497698055438 y_1!1_2!5 +72.44135563520467 y_1!2_2!5 -96.24080180886364 y_1!3_2!5 +57.75237980059518 y_1!4_2!5 +48.58063279726724 y_1!5_2!5 + lambda_0!3 - mu_0 = 0
 epc_0!4: +83.92905705934899 y_1!1_2!1 -23.62938073648357 y_1!2_2!1 +60.15043325293499 y_1!3_2!1 -56.69533735986452 y_1!4_2!1 -10.402269139637554 y_1!5_2!1 -65.78260193107556 y_1!1_2!2 -23.04623987899018 y_1!2_2!2 +65.4655770020706 y_1!3_2!2 +30.320836247031707 y_1!4_2!2 -33.472397602837674 y_1!5_2!2 -22.330270543303897 y_1!1_2!3 +34.56486805189235 y_1!2_2!3 +94.51617238369153 y_1!3_2!3 -68.843521776371 y_1!4_2!3 +37.33854125259606 y_1!5_2!3 +96.52121299072363 y_1!1_2!4 +33.452276865709734 y_1!2_2!4 +34.68474596121084 y_1!3_2!4 -87.82392752097827 y_1!4_2!4 -82.90006761685342 y_1!5_2!4 +43.10704094154002 y_1!1_2!5 -1.6836583726788348 y_1!2_2!5 -9.012593835062077 y_1!3_2!5 -56.56992602510056 y_1!4_2!5 +15.688928187928127 y_1!5_2!5 + lambda_0!4 - mu_0 = 0
 epc_0!5: +95.61346982673669 y_1!1_2!1 -69.746643433937 y_1!2_2!1 -53.067697665510806 y_1!3_2!1 +79.35567619771024 y_1!4_2!1 +17.21996118967712 y_1!5_2!1 -5.309646974883407 y_1!1_2!2 -12.79512699893182 y_1!2_2!2 -68.61702807486543 y_1!3_2!2 +64.75149809425528 y_1!4_2!2 -81.15518459805398 y_1!5_2!2 -72.39870080761854 y_1!1_2!3 -34.92493560179801 y_1!2_2!3 -18.991378404634503 y_1!3_2!3 +83.016287927424 y_1!4_2!3 +33.81266163211444 y_1!5_2!3 -41.06612733012589 y_1!1_2!4 -14.114385934271695 y_1!2_2!4 -93.9059427338004 y_1!3_2!4 -61.12634452014074 y_1!4_2!4 -66.0211580916 y_1!5_2!4 -91.91546168665874 y_1!1_2!5 -39.030293085176936 y_1!2_2!5 -84.46924594962393 y_1!3_2!5 +50.80100381853191 y_1!4_2!5 +93.64376812327313 y_1!5_2!5 + lambda_0!5 - mu_0 = 0
 dc_0: x_0!1 + x_0!2 + x_0!3 + x_0!4 + x_0!5 = 1
 bc_0!1: lambda_0!1 +299.695049659869 x_0!1 <= 299.695049659869
 bc_0!2: lambda_0!2 +299.695049659869 x_0!2 <= 299.695049659869
 bc_0!3: lambda_0!3 +299.695049659869 x_0!3 <= 299.695049659869
 bc_0!4: lambda_0!4 +299.695049659869 x_0!4 <= 299.695049659869
 bc_0!5: lambda_0!5 +299.695049659869 x_0!5 <= 299.695049659869
 sum_0!1: y_1!1_2!1 - x_1!1 - x_2!1 >= -1
 idk_0!1!1: y_1!1_2!1 - x_1!1 <= 0
 idk_0!1!2: y_1!1_2!1 - x_2!1 <= 0
 sum_0!2: y_1!2_2!1 - x_1!2 - x_2!1 >= -1
 idk_0!2!1: y_1!2_2!1 - x_1!2 <= 0
 idk_0!2!2: y_1!2_2!1 - x_2!1 <= 0
 sum_0!3: y_1!3_2!1 - x_1!3 - x_2!1 >= -1
 idk_0!3!1: y_1!3_2!1 - x_1!3 <= 0
 idk_0!3!2: y_1!3_2!1 - x_2!1 <= 0
 sum_0!4: y_1!4_2!1 - x_1!4 - x_2!1 >= -1
 idk_0!4!1: y_1!4_2!1 - x_1!4 <= 0
 idk_0!4!2: y_1!4_2!1 - x_2!1 <= 0
 sum_0!5: y_1!5_2!1 - x_1!5 - x_2!1 >= -1
 idk_0!5!1: y_1!5_2!1 - x_1!5 <= 0
 idk_0!5!2: y_1!5_2!1 - x_2!1 <= 0
 sum_0!6: y_1!1_2!2 - x_1!1 - x_2!2 >= -1
 idk_0!6!1: y_1!1_2!2 - x_1!1 <= 0
 idk_0!6!2: y_1!1_2!2 - x_2!2 <= 0
 sum_0!7: y_1!2_2!2 - x_1!2 - x_2!2 >= -1
 idk_0!7!1: y_1!2_2!2 - x_1!2 <= 0
 idk_0!7!2: y_1!2_2!2 - x_2!2 <= 0
 sum_0!8: y_1!3_2!2 - x_1!3 - x_2!2 >= -1
 idk_0!8!1: y_1!3_2!2 - x_1!3 <= 0
 idk_0!8!2: y_1!3_2!2 - x_2!2 <= 0
 sum_0!9: y_1!4_2!2 - x_1!4 - x_2!2 >= -1
 idk_0!9!1: y_1!4_2!2 - x_1!4 <= 0
 idk_0!9!2: y_1!4_2!2 - x_2!2 <= 0
 sum_0!10: y_1!5_2!2 - x_1!5 - x_2!2 >= -1
 idk_0!10!1: y_1!5_2!2 - x_1!5 <= 0
 idk_0!10!2: y_1!5_2!2 - x_2!2 <= 0
 sum_0!11: y_1!1_2!3 - x_1!1 - x_2!3 >= -1
 idk_0!11!1: y_1!1_2!3 - x_1!1 <= 0
 idk_0!11!2: y_1!1_2!3 - x_2!3 <= 0
 sum_0!12: y_1!2_2!3 - x_1!2 - x_2!3 >= -1
 idk_0!12!1: y_1!2_2!3 - x_1!2 <= 0
 idk_0!12!2: y_1!2_2!3 - x_2!3 <= 0
 sum_0!13: y_1!3_2!3 - x_1!3 - x_2!3 >= -1
 idk_0!13!1: y_1!3_2!3 - x_1!3 <= 0
 idk_0!13!2: y_1!3_2!3 - x_2!3 <= 0
 sum_0!14: y_1!4_2!3 - x_1!4 - x_2!3 >= -1
 idk_0!14!1: y_1!4_2!3 - x_1!4 <= 0
 idk_0!14!2: y_1!4_2!3 - x_2!3 <= 0
 sum_0!15: y_1!5_2!3 - x_1!5 - x_2!3 >= -1
 idk_0!15!1: y_1!5_2!3 - x_1!5 <= 0
 idk_0!15!2: y_1!5_2!3 - x_2!3 <= 0
 sum_0!16: y_1!1_2!4 - x_1!1 - x_2!4 >= -1
 idk_0!16!1: y_1!1_2!4 - x_1!1 <= 0
 idk_0!16!2: y_1!1_2!4 - x_2!4 <= 0
 sum_0!17: y_1!2_2!4 - x_1!2 - x_2!4 >= -1
 idk_0!17!1: y_1!2_2!4 - x_1!2 <= 0
 idk_0!17!2: y_1!2_2!4 - x_2!4 <= 0
 sum_0!18: y_1!3_2!4 - x_1!3 - x_2!4 >= -1
 idk_0!18!1: y_1!3_2!4 - x_1!3 <= 0
 idk_0!18!2: y_1!3_2!4 - x_2!4 <= 0
 sum_0!19: y_1!4_2!4 - x_1!4 - x_2!4 >= -1
 idk_0!19!1: y_1!4_2!4 - x_1!4 <= 0
 idk_0!19!2: y_1!4_2!4 - x_2!4 <= 0
 sum_0!20: y_1!5_2!4 - x_1!5 - x_2!4 >= -1
 idk_0!20!1: y_1!5_2!4 - x_1!5 <= 0
 idk_0!20!2: y_1!5_2!4 - x_2!4 <= 0
 sum_0!21: y_1!1_2!5 - x_1!1 - x_2!5 >= -1
 idk_0!21!1: y_1!1_2!5 - x_1!1 <= 0
 idk_0!21!2: y_1!1_2!5 - x_2!5 <= 0
 sum_0!22: y_1!2_2!5 - x_1!2 - x_2!5 >= -1
 idk_0!22!1: y_1!2_2!5 - x_1!2 <= 0
 idk_0!22!2: y_1!2_2!5 - x_2!5 <= 0
 sum_0!23: y_1!3_2!5 - x_1!3 - x_2!5 >= -1
 idk_0!23!1: y_1!3_2!5 - x_1!3 <= 0
 idk_0!23!2: y_1!3_2!5 - x_2!5 <= 0
 sum_0!24: y_1!4_2!5 - x_1!4 - x_2!5 >= -1
 idk_0!24!1: y_1!4_2!5 - x_1!4 <= 0
 idk_0!24!2: y_1!4_2!5 - x_2!5 <= 0
 sum_0!25: y_1!5_2!5 - x_1!5 - x_2!5 >= -1
 idk_0!25!1: y_1!5_2!5 - x_1!5 <= 0
 idk_0!25!2: y_1!5_2!5 - x_2!5 <= 0
 epc_1!1: -82.68127412453657 y_0!1_2!1 -21.49958422424274 y_0!2_2!1 +85.6763889498639 y_0!3_2!1 +28.16856262868177 y_0!4_2!1 -62.325356922435745 y_0!5_2!1 -69.04014609040827 y_0!1_2!2 -5.9537361942398945 y_0!2_2!2 -82.51416628487397 y_0!3_2!2 +30.728057308406875 y_0!4_2!2 +7.778301167718027 y_0!5_2!2 +87.32838428075993 y_0!1_2!3 -62.898375513970464 y_0!2_2!3 -74.15635585460635 y_0!3_2!3 -36.418178186197615 y_0!4_2!3 +92.88061143102809 y_0!5_2!3 +58.05067732836048 y_0!1_2!4 +63.087185830191714 y_0!2_2!4 +52.743799859573244 y_0!3_2!4 +63.76723657785729 y_0!4_2!4 -2.3691429075079213 y_0!5_2!4 -27.3604692374455 y_0!1_2!5 +83.23700318641073 y_0!2_2!5 +26.535685969119143 y_0!3_2!5 +76.49548496355229 y_0!4_2!5 -51.95561057876943 y_0!5_2!5 + lambda_1!1 - mu_1 = 0
 epc_1!2: +11.136237011028484 y_0!1_2!1 -94.35502450562652 y_0!2_2!1 +70.64042612092723 y_0!3_2!1 -73.20645077899488 y_0!4_2!1 -26.43619928670094 y_0!5_2!1 -97.40125672600384 y_0!1_2!2 +23.113258232986638 y_0!2_2!2 -61.016102233380785 y_0!3_2!2 +47.0630208463931 y_0!4_2!2 -79.91525213166659 y_0!5_2!2 +92.88688700565686 y_0!1_2!3 -92.50443903560392 y_0!2_2!3 +64.30824172457298 y_0!3_2!3 +98.60403446450843 y_0!4_2!3 -47.774681365942804 y_0!5_2!3 +82.03165834288751 y_0!1_2!4 +48.21849069054349 y_0!2_2!4 +27.9885394534584 y_0!3_2!4 -93.95624832025075 y_0!4_2!4 -11.55460406218684 y_0!5_2!4 +81.1678765128679 y_0!1_2!5 +88.3513727108095 y_0!2_2!5 +5.33099354384467 y_0!3_2!5 -41.38644712071204 y_0!4_2!5 -35.55978826618687 y_0!5_2!5 + lambda_1!2 - mu_1 = 0
 epc_1!3: +40.74256622214662 y_0!1_2!1 -11.875559823772932 y_0!2_2!1 +93.44055520599099 y_0!3_2!1 -75.32024591132773 y_0!4_2!1 -42.102597574038334 y_0!5_2!1 -54.65465410021102 y_0!1_2!2 +54.69350989793398 y_0!2_2!2 +57.54547872910007 y_0!3_2!2 +21.62548717293818 y_0!4_2!2 +87.52941135073195 y_0!5_2!2 -79.55600288599652 y_0!1_2!3 +59.58421437244252 y_0!2_2!3 -30.226810028080294 y_0!3_2!3 +11.523441887865118 y_0!4_2!3 +28.532421400702134 y_0!5_2!3 +48.87872310268875 y_0!1_2!4 -13.976010109591641 y_0!2_2!4 +87.94090288779748 y_0!3_2!4 -72.31678870244377 y_0!4_2!4 -37.392436463411016 y_0!5_2!4 -32.3975515853365 y_0!1_2!5 -30.71624477995549 y_0!2_2!5 -58.09070534210659 y_0!3_2!5 +60.69408802915598 y_0!4_2!5 +58.52952369241768 y_0!5_2!5 + lambda_1!3 - mu_1 = 0
 epc_1!4: +60.887296248831746 y_0!1_2!1 +62.01030439348932 y_0!2_2!1 -53.39471247544392 y_0!3_2!1 -34.92183011368344 y_0!4_2!1 -67.59110332038038 y_0!5_2!1 -80.14487002070288 y_0!1_2!2 +48.633658316156925 y_0!2_2!2 -62.21403000775629 y_0!3_2!2 -30.569189017034887 y_0!4_2!2 -50.600436176885786 y_0!5_2!2 -2.229477463405445 y_0!1_2!3 -11.61446179296199 y_0!2_2!3 +91.49283289043916 y_0!3_2!3 -94.55784522956654 y_0!4_2!3 -88.16842552084437 y_0!5_2!3 -40.309904506023656 y_0!1_2!4 -80.33747595727965 y_0!2_2!4 -64.32070389178696 y_0!3_2!4 -20.286180699013002 y_0!4_2!4 -64.51527407800712 y_0!5_2!4 +92.35091076449035 y_0!1_2!5 -89.92518037508219 y_0!2_2!5 +12.80962988114402 y_0!3_2!5 +94.57795597587742 y_0!4_2!5 +53.68215829646465 y_0!5_2!5 + lambda_1!4 - mu_1 = 0
 epc_1!5: +30.462097590007488 y_0!1_2!1 +7.3898290891226 y_0!2_2!1 +69.62135092793608 y_0!3_2!1 -4.683059294366473 y_0!4_2!1 -15.804568187761618 y_0!5_2!1 +67.47608778752695 y_0!1_2!2 -45.90083597858838 y_0!2_2!2 +92.75852148737263 y_0!3_2!2 +12.14756573278477 y_0!4_2!2 -70.19347568033399 y_0!5_2!2 +76.9635009780443 y_0!1_2!3 +50.69926895788885 y_0!2_2!3 -46.29670927444571 y_0!3_2!3 +64.27427111874374 y_0!4_2!3 +12.876436349028182 y_0!5_2!3 -66.069646316031 y_0!1_2!4 +84.17082122762221 y_0!2_2!4 +64.85079498373128 y_0!3_2!4 -63.231489113437256 y_0!4_2!4 -19.711588935721664 y_0!5_2!4 +26.617225021846266 y_0!1_2!5 -69.6210710706961 y_0!2_2!5 -59.57408157827759 y_0!3_2!5 +52.06214945382564 y_0!4_2!5 -30.72383365494798 y_0!5_2!5 + lambda_1!5 - mu_1 = 0
 dc_1: x_1!1 + x_1!2 + x_1!3 + x_1!4 + x_1!5 = 1
 bc_1!1: lambda_1!1 +299.695049659869 x_1!1 <= 299.695049659869
 bc_1!2: lambda_1!2 +299.695049659869 x_1!2 <= 299.695049659869
 bc_1!3: lambda_1!3 +299.695049659869 x_1!3 <= 299.695049659869
 bc_1!4: lambda_1!4 +299.695049659869 x_1!4 <= 299.695049659869
 bc_1!5: lambda_1!5 +299.695049659869 x_1!5 <= 299.695049659869
 sum_1!1: y_0!1_2!1 - x_0!1 - x_2!1 >= -1
 idk_1!1!0: y_0!1_2!1 - x_0!1 <= 0
 idk_1!1!2: y_0!1_2!1 - x_2!1 <= 0
 sum_1!2: y_0!2_2!1 - x_0!2 - x_2!1 >= -1
 idk_1!2!0: y_0!2_2!1 - x_0!2 <= 0
 idk_1!2!2: y_0!2_2!1 - x_2!1 <= 0
 sum_1!3: y_0!3_2!1 - x_0!3 - x_2!1 >= -1
 idk_1!3!0: y_0!3_2!1 - x_0!3 <= 0
 idk_1!3!2: y_0!3_2!1 - x_2!1 <= 0
 sum_1!4: y_0!4_2!1 - x_0!4 - x_2!1 >= -1
 idk_1!4!0: y_0!4_2!1 - x_0!4 <= 0
 idk_1!4!2: y_0!4_2!1 - x_2!1 <= 0
 sum_1!5: y_0!5_2!1 - x_0!5 - x_2!1 >= -1
 idk_1!5!0: y_0!5_2!1 - x_0!5 <= 0
 idk_1!5!2: y_0!5_2!1 - x_2!1 <= 0
 sum_1!6: y_0!1_2!2 - x_0!1 - x_2!2 >= -1
 idk_1!6!0: y_0!1_2!2 - x_0!1 <= 0
 idk_1!6!2: y_0!1_2!2 - x_2!2 <= 0
 sum_1!7: y_0!2_2!2 - x_0!2 - x_2!2 >= -1
 idk_1!7!0: y_0!2_2!2 - x_0!2 <= 0
 idk_1!7!2: y_0!2_2!2 - x_2!2 <= 0
 sum_1!8: y_0!3_2!2 - x_0!3 - x_2!2 >= -1
 idk_1!8!0: y_0!3_2!2 - x_0!3 <= 0
 idk_1!8!2: y_0!3_2!2 - x_2!2 <= 0
 sum_1!9: y_0!4_2!2 - x_0!4 - x_2!2 >= -1
 idk_1!9!0: y_0!4_2!2 - x_0!4 <= 0
 idk_1!9!2: y_0!4_2!2 - x_2!2 <= 0
 sum_1!10: y_0!5_2!2 - x_0!5 - x_2!2 >= -1
 idk_1!10!0: y_0!5_2!2 - x_0!5 <= 0
 idk_1!10!2: y_0!5_2!2 - x_2!2 <= 0
 sum_1!11: y_0!1_2!3 - x_0!1 - x_2!3 >= -1
 idk_1!11!0: y_0!1_2!3 - x_0!1 <= 0
 idk_1!11!2: y_0!1_2!3 - x_2!3 <= 0
 sum_1!12: y_0!2_2!3 - x_0!2 - x_2!3 >= -1
 idk_1!12!0: y_0!2_2!3 - x_0!2 <= 0
 idk_1!12!2: y_0!2_2!3 - x_2!3 <= 0
 sum_1!13: y_0!3_2!3 - x_0!3 - x_2!3 >= -1
 idk_1!13!0: y_0!3_2!3 - x_0!3 <= 0
 idk_1!13!2: y_0!3_2!3 - x_2!3 <= 0
 sum_1!14: y_0!4_2!3 - x_0!4 - x_2!3 >= -1
 idk_1!14!0: y_0!4_2!3 - x_0!4 <= 0
 idk_1!14!2: y_0!4_2!3 - x_2!3 <= 0
 sum_1!15: y_0!5_2!3 - x_0!5 - x_2!3 >= -1
 idk_1!15!0: y_0!5_2!3 - x_0!5 <= 0
 idk_1!15!2: y_0!5_2!3 - x_2!3 <= 0
 sum_1!16: y_0!1_2!4 - x_0!1 - x_2!4 >= -1
 idk_1!16!0: y_0!1_2!4 - x_0!1 <= 0
 idk_1!16!2: y_0!1_2!4 - x_2!4 <= 0
 sum_1!17: y_0!2_2!4 - x_0!2 - x_2!4 >= -1
 idk_1!17!0: y_0!2_2!4 - x_0!2 <= 0
 idk_1!17!2: y_0!2_2!4 - x_2!4 <= 0
 sum_1!18: y_0!3_2!4 - x_0!3 - x_2!4 >= -1
 idk_1!18!0: y_0!3_2!4 - x_0!3 <= 0
 idk_1!18!2: y_0!3_2!4 - x_2!4 <= 0
 sum_1!19: y_0!4_2!4 - x_0!4 - x_2!4 >= -1
 idk_1!19!0: y_0!4_2!4 - x_0!4 <= 0
 idk_1!19!2: y_0!4_2!4 - x_2!4 <= 0
 sum_1!20: y_0!5_2!4 - x_0!5 - x_2!4 >= -1
 idk_1!20!0: y_0!5_2!4 - x_0!5 <= 0
 idk_1!20!2: y_0!5_2!4 - x_2!4 <= 0
 sum_1!21: y_0!1_2!5 - x_0!1 - x_2!5 >= -1
 idk_1!21!0: y_0!1_2!5 - x_0!1 <= 0
 idk_1!21!2: y_0!1_2!5 - x_2!5 <= 0
 sum_1!22: y_0!2_2!5 - x_0!2 - x_2!5 >= -1
 idk_1!22!0: y_0!2_2!5 - x_0!2 <= 0
 idk_1!22!2: y_0!2_2!5 - x_2!5 <= 0
 sum_1!23: y_0!3_2!5 - x_0!3 - x_2!5 >= -1
 idk_1!23!0: y_0!3_2!5 - x_0!3 <= 0
 idk_1!23!2: y_0!3_2!5 - x_2!5 <= 0
 sum_1!24: y_0!4_2!5 - x_0!4 - x_2!5 >= -1
 idk_1!24!0: y_0!4_2!5 - x_0!4 <= 0
 idk_1!24!2: y_0!4_2!5 - x_2!5 <= 0
 sum_1!25: y_0!5_2!5 - x_0!5 - x_2!5 >= -1
 idk_1!25!0: y_0!5_2!5 - x_0!5 <= 0
 idk_1!25!2: y_0!5_2!5 - x_2!5 <= 0
 epc_2!1: -34.64660511008819 y_0!1_1!1 +96.46240561090733 y_0!2_1!1 -83.80465209214162 y_0!3_1!1 -34.00167296432133 y_0!4_1!1 +55.77755983496982 y_0!5_1!1 +8.552372385868395 y_0!1_1!2 +2.282591573685096 y_0!2_1!2 +82.98244421502108 y_0!3_1!2 +74.72334108067301 y_0!4_1!2 -54.963251658114174 y_0!5_1!2 -87.0202796573033 y_0!1_1!3 +84.57771255027845 y_0!2_1!3 +39.71004196822304 y_0!3_1!3 -19.05599113915342 y_0!4_1!3 -71.03122736205067 y_0!5_1!3 -11.843763954028901 y_0!1_1!4 -59.09951314946991 y_0!2_1!4 +45.217461798593604 y_0!3_1!4 -20.12747667719401 y_0!4_1!4 +41.12340776594894 y_0!5_1!4 +50.67641181764279 y_0!1_1!5 -61.363689463201695 y_0!2_1!5 +99.16612262815713 y_0!3_1!5 -50.97575117491067 y_0!4_1!5 -85.52070820265176 y_0!5_1!5 + lambda_2!1 - mu_2 = 0
 epc_2!2: -40.168348372370865 y_0!1_1!1 -16.247986280630627 y_0!2_1!1 +41.71002780009496 y_0!3_1!1 +80.307983190378 y_0!4_1!1 +25.15797252103428 y_0!5_1!1 +45.37460912716972 y_0!1_1!2 -45.17065195644712 y_0!2_1!2 -86.47764970855694 y_0!3_1!2 -56.62406805827218 y_0!4_1!2 -85.31587355788714 y_0!5_1!2 -11.521328947457434 y_0!1_1!3 -48.39016948919392 y_0!2_1!3 -49.95245385325538 y_0!3_1!3 +51.141640749094876 y_0!4_1!3 +58.1670769032246 y_0!5_1!3 -19.67022380606332 y_0!1_1!4 -80.75978046689936 y_0!2_1!4 -76.90961955861506 y_0!3_1!4 +75.32077767859394 y_0!4_1!4 -41.841854740048 y_0!5_1!4 +51.581371720516756 y_0!1_1!5 -47.79904260522354 y_0!2_1!5 +85.37290534393088 y_0!3_1!5 +80.21297014414421 y_0!4_1!5 +87.90073126680241 y_0!5_1!5 + lambda_2!2 - mu_2 = 0
 epc_2!3: +65.131160166766 y_0!1_1!1 -48.94534173787308 y_0!2_1!1 +55.848856683639326 y_0!3_1!1 +16.642623018240997 y_0!4_1!1 +62.623696917848804 y_0!5_1!1 -3.1760147108862924 y_0!1_1!2 +75.86652182578689 y_0!2_1!2 +30.926001232052215 y_0!3_1!2 -97.60195613305962 y_0!4_1!2 +27.438462514268778 y_0!5_1!2 -34.208734918649355 y_0!1_1!3 -52.424807436995714 y_0!2_1!3 -2.924536559422492 y_0!3_1!3 +99.49925234337303 y_0!4_1!3 +60.93201526804927 y_0!5_1!3 +25.639621725661414 y_0!1_1!4 -47.991006088229746 y_0!2_1!4 -40.63668017478768 y_0!3_1!4 -3.059548366005032 y_0!4_1!4 -84.13376312940224 y_0!5_1!4 +10.273053430530084 y_0!1_1!5 -35.858466873693274 y_0!2_1!5 +86.34748214069617 y_0!3_1!5 -64.71653346903656 y_0!4_1!5 +33.200111813742694 y_0!5_1!5 + lambda_2!3 - mu_2 = 0
 epc_2!4: -25.429612777967165 y_0!1_1!1 +47.062208612210895 y_0!2_1!1 -7.498962319450953 y_0!3_1!1 -75.26532181165608 y_0!4_1!1 -50.63447619186159 y_0!5_1!1 -36.92374827224321 y_0!1_1!2 +89.52516166116135 y_0!2_1!2 +6.507720975664384 y_0!3_1!2 -19.76439042423567 y_0!4_1!2 +90.6242315716616 y_0!5_1!2 -5.165997171346731 y_0!1_1!3 -32.08264177085607 y_0!2_1!3 +85.0552200553858 y_0!3_1!3 +74.80891124655386 y_0!4_1!3 +20.15355756013895 y_0!5_1!3 +51.634549877233695 y_0!1_1!4 +23.76588439722569 y_0!2_1!4 -87.79265729107553 y_0!3_1!4 +39.81952387367437 y_0!4_1!4 +89.83530883636814 y_0!5_1!4 -82.60526899271461 y_0!1_1!5 -15.767769005170848 y_0!2_1!5 -33.19409614534095 y_0!3_1!5 +80.0937325337643 y_0!4_1!5 -64.8496220496734 y_0!5_1!5 + lambda_2!4 - mu_2 = 0
 epc_2!5: +94.03047357338622 y_0!1_1!1 +43.44645899989439 y_0!2_1!1 -17.746979417240127 y_0!3_1!1 -32.123878433780575 y_0!4_1!1 +66.45865921426665 y_0!5_1!1 -82.42945527401322 y_0!1_1!2 -71.27559957019356 y_0!2_1!2 +28.210820622910973 y_0!3_1!2 -83.81683412206648 y_0!4_1!2 -43.78005808309471 y_0!5_1!2 +70.5467721408977 y_0!1_1!3 -91.3719706416543 y_0!2_1!3 +53.21024860374553 y_0!3_1!3 -0.6911535743250283 y_0!4_1!3 +30.17258425105598 y_0!5_1!3 -11.905562613215864 y_0!1_1!4 +78.15935883698515 y_0!2_1!4 -25.465650646686512 y_0!3_1!4 -0.6716090632684626 y_0!4_1!4 +6.4088541296367225 y_0!5_1!4 +21.350737089797562 y_0!1_1!5 +82.54009006693076 y_0!2_1!5 -93.56876312979958 y_0!3_1!5 -77.64668404499231 y_0!4_1!5 +0.2861666403596814 y_0!5_1!5 + lambda_2!5 - mu_2 = 0
 dc_2: x_2!1 + x_2!2 + x_2!3 + x_2!4 + x_2!5 = 1
 bc_2!1: lambda_2!1 +299.695049659869 x_2!1 <= 299.695049659869
 bc_2!2: lambda_2!2 +299.695049659869 x_2!2 <= 299.695049659869
 bc_2!3: lambda_2!3 +299.695049659869 x_2!3 <= 299.695049659869
 bc_2!4: lambda_2!4 +299.695049659869 x_2!4 <= 299.695049659869
 bc_2!5: lambda_2!5 +299.695049659869 x_2!5 <= 299.695049659869
 sum_2!1: y_0!1_1!1 - x_0!1 - x_1!1 >= -1
 idk_2!1!0: y_0!1_1!1 - x_0!1 <= 0
 idk_2!1!1: y_0!1_1!1 - x_1!1 <= 0
 sum_2!2: y_0!2_1!1 - x_0!2 - x_1!1 >= -1
 idk_2!2!0: y_0!2_1!1 - x_0!2 <= 0
 idk_2!2!1: y_0!2_1!1 - x_1!1 <= 0
 sum_2!3: y_0!3_1!1 - x_0!3 - x_1!1 >= -1
 idk_2!3!0: y_0!3_1!1 - x_0!3 <= 0
 idk_2!3!1: y_0!3_1!1 - x_1!1 <= 0
 sum_2!4: y_0!4_1!1 - x_0!4 - x_1!1 >= -1
 idk_2!4!0: y_0!4_1!1 - x_0!4 <= 0
 idk_2!4!1: y_0!4_1!1 - x_1!1 <= 0
 sum_2!5: y_0!5_1!1 - x_0!5 - x_1!1 >= -1
 idk_2!5!0: y_0!5_1!1 - x_0!5 <= 0
 idk_2!5!1: y_0!5_1!1 - x_1!1 <= 0
 sum_2!6: y_0!1_1!2 - x_0!1 - x_1!2 >= -1
 idk_2!6!0: y_0!1_1!2 - x_0!1 <= 0
 idk_2!6!1: y_0!1_1!2 - x_1!2 <= 0
 sum_2!7: y_0!2_1!2 - x_0!2 - x_1!2 >= -1
 idk_2!7!0: y_0!2_1!2 - x_0!2 <= 0
 idk_2!7!1: y_0!2_1!2 - x_1!2 <= 0
 sum_2!8: y_0!3_1!2 - x_0!3 - x_1!2 >= -1
 idk_2!8!0: y_0!3_1!2 - x_0!3 <= 0
 idk_2!8!1: y_0!3_1!2 - x_1!2 <= 0
 sum_2!9: y_0!4_1!2 - x_0!4 - x_1!2 >= -1
 idk_2!9!0: y_0!4_1!2 - x_0!4 <= 0
 idk_2!9!1: y_0!4_1!2 - x_1!2 <= 0
 sum_2!10: y_0!5_1!2 - x_0!5 - x_1!2 >= -1
 idk_2!10!0: y_0!5_1!2 - x_0!5 <= 0
 idk_2!10!1: y_0!5_1!2 - x_1!2 <= 0
 sum_2!11: y_0!1_1!3 - x_0!1 - x_1!3 >= -1
 idk_2!11!0: y_0!1_1!3 - x_0!1 <= 0
 idk_2!11!1: y_0!1_1!3 - x_1!3 <= 0
 sum_2!12: y_0!2_1!3 - x_0!2 - x_1!3 >= -1
 idk_2!12!0: y_0!2_1!3 - x_0!2 <= 0
 idk_2!12!1: y_0!2_1!3 - x_1!3 <= 0
 sum_2!13: y_0!3_1!3 - x_0!3 - x_1!3 >= -1
 idk_2!13!0: y_0!3_1!3 - x_0!3 <= 0
 idk_2!13!1: y_0!3_1!3 - x_1!3 <= 0
 sum_2!14: y_0!4_1!3 - x_0!4 - x_1!3 >= -1
 idk_2!14!0: y_0!4_1!3 - x_0!4 <= 0
 idk_2!14!1: y_0!4_1!3 - x_1!3 <= 0
 sum_2!15: y_0!5_1!3 - x_0!5 - x_1!3 >= -1
 idk_2!15!0: y_0!5_1!3 - x_0!5 <= 0
 idk_2!15!1: y_0!5_1!3 - x_1!3 <= 0
 sum_2!16: y_0!1_1!4 - x_0!1 - x_1!4 >= -1
 idk_2!16!0: y_0!1_1!4 - x_0!1 <= 0
 idk_2!16!1: y_0!1_1!4 - x_1!4 <= 0
 sum_2!17: y_0!2_1!4 - x_0!2 - x_1!4 >= -1
 idk_2!17!0: y_0!2_1!4 - x_0!2 <= 0
 idk_2!17!1: y_0!2_1!4 - x_1!4 <= 0
 sum_2!18: y_0!3_1!4 - x_0!3 - x_1!4 >= -1
 idk_2!18!0: y_0!3_1!4 - x_0!3 <= 0
 idk_2!18!1: y_0!3_1!4 - x_1!4 <= 0
 sum_2!19: y_0!4_1!4 - x_0!4 - x_1!4 >= -1
 idk_2!19!0: y_0!4_1!4 - x_0!4 <= 0
 idk_2!19!1: y_0!4_1!4 - x_1!4 <= 0
 sum_2!20: y_0!5_1!4 - x_0!5 - x_1!4 >= -1
 idk_2!20!0: y_0!5_1!4 - x_0!5 <= 0
 idk_2!20!1: y_0!5_1!4 - x_1!4 <= 0
 sum_2!21: y_0!1_1!5 - x_0!1 - x_1!5 >= -1
 idk_2!21!0: y_0!1_1!5 - x_0!1 <= 0
 idk_2!21!1: y_0!1_1!5 - x_1!5 <= 0
 sum_2!22: y_0!2_1!5 - x_0!2 - x_1!5 >= -1
 idk_2!22!0: y_0!2_1!5 - x_0!2 <= 0
 idk_2!22!1: y_0!2_1!5 - x_1!5 <= 0
 sum_2!23: y_0!3_1!5 - x_0!3 - x_1!5 >= -1
 idk_2!23!0: y_0!3_1!5 - x_0!3 <= 0
 idk_2!23!1: y_0!3_1!5 - x_1!5 <= 0
 sum_2!24: y_0!4_1!5 - x_0!4 - x_1!5 >= -1
 idk_2!24!0: y_0!4_1!5 - x_0!4 <= 0
 idk_2!24!1: y_0!4_1!5 - x_1!5 <= 0
 sum_2!25: y_0!5_1!5 - x_0!5 - x_1!5 >= -1
 idk_2!25!0: y_0!5_1!5 - x_0!5 <= 0
 idk_2!25!1: y_0!5_1!5 - x_1!5 <= 0
Bounds
 mu_0 free
 mu_1 free
 mu_2 free
Binary
 x_0!1 x_0!2 x_0!3 x_0!4 x_0!5 x_1!1 x_1!2 x_1!3 x_1!4 x_1!5 x_2!1 x_2!2 x_2!3 x_2!4 x_2!5
End
